benchmarks_vrp/CMT11/tsp_classic/CMT11_2.vrp
NAME: CMT11_2
TYPE: CVRP
COMMENT: 1042.11 - Cluster Nr.2
DIMENSION: 19
CAPACITY: 200
EDGE_WEIGHT_TYPE: EUC_2D
NODE_COORD_TYPE: TWOD_COORDS
NODE_COORD_SECTION: 
7 25 45
12 14 50
9 30 50
11 22 51
1 5 40
4 5 50
3 30 46
5 16 54
6 30 55
8 16 48
13 10 45
14 22 44
15 18 53
2 20 50
16 15 51
17 25 37
18 20 55
10 18 49
19 25 52
DEPOT_SECTION: 
13
-1
DEMAND_SECTION: 
13 0
2 11
12 8
18 12
4 13
15 7
1 20
19 10
14 10
6 12
7 17
5 5
10 9
11 7
8 11
16 6
17 13
9 7
3 11
EOF
