benchmarks_vrp/CMT11/tsp_classic/CMT11_2.tour
NAME: CMT11_2 solution
TYPE: TOUR
TOUR_SECTION:
13 1 4 12 16 5 15 18 11 19 6 9 3 7 17 14 2 10 8 -1
-1
EOF